




































































































10 8 41 44 49 68 
6 33 15 43 69 48 
3 12 17 39 42 
74 25 62 21 50 31 
32 70 11 28 58 34 
13 29 19 20 5 66 
16 18 55 35 71 7 
0 14 26 53 45 73 
64 65 27 76 24 63 
37 57 56 75 47 
2 36 59 51 40 
54 67 
61 52 46 30 72 9 
1 23 60 22 38 4 
